-259.0 9.0 3.0 8.0 10.0 1.0 2.0 1.0 3.0 4.0 8.0 8.0 10.0 8.0 6.0 6.0 10.0 3.0 4.0 0.0 8.0 5.0 1.0 7.0 1.0 6.0 9.0 7.0 4.0 7.0 7.0 4.0 5.0 10.0 7.0 9.0 10.0 6.0 7.0 8.0 4.0 8.0 2.0 3.0 10.0 
9.0 -239.0 6.0 9.0 5.0 4.0 6.0 10.0 8.0 6.0 9.0 3.0 6.0 8.0 3.0 5.0 10.0 7.0 5.0 7.0 6.0 7.0 8.0 1.0 5.0 7.0 8.0 3.0 8.0 3.0 3.0 8.0 4.0 10.0 1.0 2.0 8.0 7.0 4.0 4.0 5.0 1.0 0.0 0.0 0.0 
3.0 6.0 -238.0 3.0 2.0 3.0 5.0 6.0 8.0 2.0 6.0 2.0 0.0 9.0 5.0 6.0 4.0 8.0 10.0 10.0 10.0 1.0 7.0 9.0 5.0 8.0 4.0 10.0 1.0 4.0 8.0 7.0 0.0 1.0 5.0 7.0 0.0 9.0 4.0 9.0 8.0 0.0 7.0 9.0 7.0 
8.0 9.0 3.0 -249.0 7.0 1.0 10.0 8.0 6.0 8.0 8.0 2.0 6.0 7.0 10.0 7.0 2.0 7.0 7.0 10.0 4.0 3.0 7.0 2.0 5.0 7.0 0.0 4.0 7.0 8.0 6.0 6.0 3.0 7.0 9.0 5.0 3.0 4.0 1.0 10.0 9.0 1.0 3.0 1.0 8.0 
10.0 5.0 2.0 7.0 -252.0 9.0 3.0 5.0 3.0 9.0 5.0 10.0 5.0 9.0 8.0 5.0 7.0 3.0 9.0 10.0 1.0 0.0 0.0 4.0 4.0 3.0 1.0 4.0 4.0 8.0 9.0 10.0 10.0 4.0 10.0 6.0 8.0 9.0 10.0 2.0 3.0 3.0 0.0 9.0 6.0 
1.0 4.0 3.0 1.0 9.0 -207.0 8.0 1.0 6.0 6.0 5.0 5.0 8.0 10.0 10.0 9.0 4.0 8.0 3.0 2.0 3.0 0.0 0.0 6.0 6.0 5.0 4.0 2.0 0.0 2.0 5.0 4.0 2.0 9.0 9.0 2.0 5.0 4.0 9.0 2.0 8.0 0.0 9.0 6.0 2.0 
2.0 6.0 5.0 10.0 3.0 8.0 -181.0 0.0 10.0 9.0 2.0 1.0 0.0 0.0 1.0 8.0 2.0 0.0 8.0 8.0 6.0 2.0 7.0 4.0 8.0 3.0 2.0 0.0 6.0 4.0 2.0 2.0 1.0 5.0 1.0 1.0 5.0 4.0 0.0 8.0 7.0 5.0 3.0 10.0 2.0 
1.0 10.0 6.0 8.0 5.0 1.0 0.0 -217.0 1.0 2.0 1.0 7.0 8.0 10.0 3.0 9.0 4.0 2.0 6.0 6.0 10.0 2.0 9.0 9.0 9.0 8.0 9.0 2.0 2.0 2.0 7.0 0.0 8.0 5.0 1.0 4.0 3.0 9.0 5.0 10.0 4.0 1.0 0.0 2.0 6.0 
3.0 8.0 8.0 6.0 3.0 6.0 10.0 1.0 -192.0 3.0 5.0 8.0 4.0 3.0 0.0 5.0 2.0 2.0 2.0 7.0 4.0 4.0 4.0 1.0 9.0 4.0 5.0 4.0 3.0 9.0 0.0 0.0 3.0 3.0 4.0 7.0 1.0 10.0 3.0 8.0 2.0 10.0 8.0 0.0 0.0 
4.0 6.0 2.0 8.0 9.0 6.0 9.0 2.0 3.0 -247.0 2.0 3.0 9.0 10.0 1.0 0.0 1.0 1.0 4.0 10.0 9.0 0.0 6.0 9.0 6.0 10.0 7.0 7.0 1.0 1.0 8.0 2.0 6.0 8.0 10.0 6.0 5.0 10.0 9.0 3.0 1.0 7.0 7.0 9.0 10.0 
8.0 9.0 6.0 8.0 5.0 5.0 2.0 1.0 5.0 2.0 -206.0 7.0 9.0 6.0 0.0 1.0 4.0 9.0 9.0 4.0 2.0 0.0 10.0 10.0 6.0 1.0 1.0 5.0 10.0 3.0 5.0 8.0 5.0 1.0 1.0 1.0 0.0 2.0 5.0 3.0 8.0 7.0 4.0 0.0 8.0 
8.0 3.0 2.0 2.0 10.0 5.0 1.0 7.0 8.0 3.0 7.0 -195.0 3.0 10.0 2.0 6.0 0.0 2.0 0.0 2.0 1.0 5.0 6.0 2.0 10.0 2.0 5.0 9.0 4.0 3.0 4.0 0.0 2.0 8.0 1.0 2.0 4.0 10.0 2.0 9.0 0.0 3.0 4.0 8.0 10.0 
10.0 6.0 0.0 6.0 5.0 8.0 0.0 8.0 4.0 9.0 9.0 3.0 -235.0 3.0 5.0 5.0 7.0 1.0 9.0 1.0 3.0 3.0 1.0 10.0 8.0 6.0 8.0 5.0 7.0 8.0 4.0 8.0 9.0 10.0 5.0 1.0 1.0 5.0 8.0 5.0 4.0 4.0 3.0 6.0 4.0 
8.0 8.0 9.0 7.0 9.0 10.0 0.0 10.0 3.0 10.0 6.0 10.0 3.0 -251.0 7.0 0.0 10.0 7.0 5.0 1.0 0.0 5.0 7.0 4.0 1.0 8.0 7.0 3.0 0.0 5.0 10.0 4.0 1.0 8.0 7.0 10.0 10.0 10.0 4.0 0.0 5.0 5.0 8.0 6.0 0.0 
6.0 3.0 5.0 10.0 8.0 10.0 1.0 3.0 0.0 1.0 0.0 2.0 5.0 7.0 -205.0 7.0 10.0 7.0 7.0 5.0 2.0 5.0 0.0 1.0 8.0 0.0 6.0 2.0 3.0 5.0 10.0 9.0 5.0 0.0 0.0 7.0 10.0 2.0 5.0 0.0 8.0 2.0 10.0 2.0 6.0 
6.0 5.0 6.0 7.0 5.0 9.0 8.0 9.0 5.0 0.0 1.0 6.0 5.0 0.0 7.0 -228.0 6.0 9.0 9.0 10.0 9.0 0.0 4.0 8.0 3.0 3.0 4.0 7.0 3.0 1.0 4.0 2.0 6.0 0.0 10.0 4.0 1.0 4.0 3.0 6.0 4.0 5.0 10.0 7.0 7.0 
10.0 10.0 4.0 2.0 7.0 4.0 2.0 4.0 2.0 1.0 4.0 0.0 7.0 10.0 10.0 6.0 -219.0 7.0 1.0 0.0 1.0 0.0 9.0 6.0 9.0 6.0 3.0 1.0 4.0 4.0 0.0 8.0 8.0 8.0 4.0 1.0 3.0 3.0 7.0 3.0 4.0 9.0 10.0 9.0 8.0 
3.0 7.0 8.0 7.0 3.0 8.0 0.0 2.0 2.0 1.0 9.0 2.0 1.0 7.0 7.0 9.0 7.0 -197.0 2.0 6.0 8.0 2.0 1.0 0.0 8.0 7.0 2.0 10.0 6.0 5.0 3.0 5.0 3.0 4.0 0.0 2.0 2.0 6.0 3.0 4.0 5.0 1.0 8.0 6.0 5.0 
4.0 5.0 10.0 7.0 9.0 3.0 8.0 6.0 2.0 4.0 9.0 0.0 9.0 5.0 7.0 9.0 1.0 2.0 -236.0 5.0 2.0 0.0 10.0 8.0 9.0 3.0 6.0 2.0 6.0 7.0 0.0 9.0 1.0 10.0 5.0 2.0 8.0 2.0 6.0 1.0 1.0 6.0 10.0 8.0 9.0 
0.0 7.0 10.0 10.0 10.0 2.0 8.0 6.0 7.0 10.0 4.0 2.0 1.0 1.0 5.0 10.0 0.0 6.0 5.0 -232.0 8.0 2.0 8.0 1.0 5.0 8.0 6.0 7.0 9.0 4.0 7.0 4.0 7.0 4.0 3.0 7.0 5.0 2.0 3.0 4.0 1.0 4.0 3.0 9.0 7.0 
8.0 6.0 10.0 4.0 1.0 3.0 6.0 10.0 4.0 9.0 2.0 1.0 3.0 0.0 2.0 9.0 1.0 8.0 2.0 8.0 -206.0 6.0 4.0 2.0 2.0 7.0 4.0 0.0 2.0 5.0 2.0 4.0 2.0 7.0 9.0 9.0 9.0 2.0 0.0 7.0 2.0 8.0 6.0 9.0 1.0 
5.0 7.0 1.0 3.0 0.0 0.0 2.0 2.0 4.0 0.0 0.0 5.0 3.0 5.0 5.0 0.0 0.0 2.0 0.0 2.0 6.0 -165.0 8.0 9.0 5.0 5.0 3.0 6.0 1.0 4.0 1.0 5.0 3.0 8.0 8.0 8.0 5.0 10.0 3.0 3.0 0.0 8.0 0.0 7.0 3.0 
1.0 8.0 7.0 7.0 0.0 0.0 7.0 9.0 4.0 6.0 10.0 6.0 1.0 7.0 0.0 4.0 9.0 1.0 10.0 8.0 4.0 8.0 -229.0 10.0 7.0 5.0 0.0 0.0 7.0 6.0 1.0 7.0 8.0 9.0 5.0 10.0 0.0 0.0 2.0 1.0 7.0 6.0 9.0 7.0 5.0 
7.0 1.0 9.0 2.0 4.0 6.0 4.0 9.0 1.0 9.0 10.0 2.0 10.0 4.0 1.0 8.0 6.0 0.0 8.0 1.0 2.0 9.0 10.0 -243.0 9.0 6.0 2.0 2.0 10.0 10.0 9.0 10.0 4.0 0.0 7.0 8.0 3.0 5.0 3.0 3.0 9.0 7.0 7.0 1.0 5.0 
1.0 5.0 5.0 5.0 4.0 6.0 8.0 9.0 9.0 6.0 6.0 10.0 8.0 1.0 8.0 3.0 9.0 8.0 9.0 5.0 2.0 5.0 7.0 9.0 -217.0 4.0 0.0 10.0 4.0 2.0 2.0 2.0 7.0 1.0 8.0 3.0 10.0 1.0 2.0 2.0 1.0 7.0 0.0 3.0 0.0 
6.0 7.0 8.0 7.0 3.0 5.0 3.0 8.0 4.0 10.0 1.0 2.0 6.0 8.0 0.0 3.0 6.0 7.0 3.0 8.0 7.0 5.0 5.0 6.0 4.0 -229.0 9.0 9.0 4.0 6.0 3.0 2.0 5.0 3.0 8.0 1.0 0.0 4.0 10.0 5.0 3.0 9.0 9.0 4.0 3.0 
9.0 8.0 4.0 0.0 1.0 4.0 2.0 9.0 5.0 7.0 1.0 5.0 8.0 7.0 6.0 4.0 3.0 2.0 6.0 6.0 4.0 3.0 0.0 2.0 0.0 9.0 -205.0 9.0 3.0 4.0 6.0 10.0 5.0 3.0 4.0 0.0 10.0 6.0 0.0 1.0 8.0 9.0 5.0 0.0 7.0 
7.0 3.0 10.0 4.0 4.0 2.0 0.0 2.0 4.0 7.0 5.0 9.0 5.0 3.0 2.0 7.0 1.0 10.0 2.0 7.0 0.0 6.0 0.0 2.0 10.0 9.0 9.0 -214.0 1.0 8.0 2.0 0.0 1.0 6.0 10.0 4.0 9.0 9.0 6.0 4.0 7.0 4.0 1.0 7.0 5.0 
4.0 8.0 1.0 7.0 4.0 0.0 6.0 2.0 3.0 1.0 10.0 4.0 7.0 0.0 3.0 3.0 4.0 6.0 6.0 9.0 2.0 1.0 7.0 10.0 4.0 4.0 3.0 1.0 -189.0 2.0 0.0 6.0 5.0 7.0 6.0 9.0 2.0 8.0 4.0 3.0 3.0 0.0 7.0 5.0 2.0 
7.0 3.0 4.0 8.0 8.0 2.0 4.0 2.0 9.0 1.0 3.0 3.0 8.0 5.0 5.0 1.0 4.0 5.0 7.0 4.0 5.0 4.0 6.0 10.0 2.0 6.0 4.0 8.0 2.0 -226.0 3.0 7.0 3.0 3.0 7.0 3.0 7.0 10.0 1.0 9.0 10.0 1.0 7.0 5.0 10.0 
7.0 3.0 8.0 6.0 9.0 5.0 2.0 7.0 0.0 8.0 5.0 4.0 4.0 10.0 10.0 4.0 0.0 3.0 0.0 7.0 2.0 1.0 1.0 9.0 2.0 3.0 6.0 2.0 0.0 3.0 -213.0 9.0 10.0 0.0 5.0 0.0 4.0 7.0 8.0 8.0 7.0 9.0 5.0 10.0 0.0 
4.0 8.0 7.0 6.0 10.0 4.0 2.0 0.0 0.0 2.0 8.0 0.0 8.0 4.0 9.0 2.0 8.0 5.0 9.0 4.0 4.0 5.0 7.0 10.0 2.0 2.0 10.0 0.0 6.0 7.0 9.0 -237.0 5.0 8.0 2.0 9.0 5.0 5.0 2.0 6.0 8.0 8.0 9.0 4.0 4.0 
5.0 4.0 0.0 3.0 10.0 2.0 1.0 8.0 3.0 6.0 5.0 2.0 9.0 1.0 5.0 6.0 8.0 3.0 1.0 7.0 2.0 3.0 8.0 4.0 7.0 5.0 5.0 1.0 5.0 3.0 10.0 5.0 -195.0 5.0 4.0 6.0 3.0 7.0 1.0 0.0 0.0 2.0 4.0 10.0 6.0 
10.0 10.0 1.0 7.0 4.0 9.0 5.0 5.0 3.0 8.0 1.0 8.0 10.0 8.0 0.0 0.0 8.0 4.0 10.0 4.0 7.0 8.0 9.0 0.0 1.0 3.0 3.0 6.0 7.0 3.0 0.0 8.0 5.0 -214.0 5.0 1.0 3.0 0.0 10.0 2.0 2.0 6.0 4.0 3.0 3.0 
7.0 1.0 5.0 9.0 10.0 9.0 1.0 1.0 4.0 10.0 1.0 1.0 5.0 7.0 0.0 10.0 4.0 0.0 5.0 3.0 9.0 8.0 5.0 7.0 8.0 8.0 4.0 10.0 6.0 7.0 5.0 2.0 4.0 5.0 -229.0 9.0 4.0 7.0 7.0 1.0 9.0 6.0 0.0 5.0 0.0 
9.0 2.0 7.0 5.0 6.0 2.0 1.0 4.0 7.0 6.0 1.0 2.0 1.0 10.0 7.0 4.0 1.0 2.0 2.0 7.0 9.0 8.0 10.0 8.0 3.0 1.0 0.0 4.0 9.0 3.0 0.0 9.0 6.0 1.0 9.0 -217.0 8.0 5.0 10.0 0.0 2.0 8.0 10.0 1.0 7.0 
10.0 8.0 0.0 3.0 8.0 5.0 5.0 3.0 1.0 5.0 0.0 4.0 1.0 10.0 10.0 1.0 3.0 2.0 8.0 5.0 9.0 5.0 0.0 3.0 10.0 0.0 10.0 9.0 2.0 7.0 4.0 5.0 3.0 3.0 4.0 8.0 -227.0 4.0 6.0 8.0 9.0 6.0 3.0 9.0 8.0 
6.0 7.0 9.0 4.0 9.0 4.0 4.0 9.0 10.0 10.0 2.0 10.0 5.0 10.0 2.0 4.0 3.0 6.0 2.0 2.0 2.0 10.0 0.0 5.0 1.0 4.0 6.0 9.0 8.0 10.0 7.0 5.0 7.0 0.0 7.0 5.0 4.0 -245.0 7.0 9.0 7.0 4.0 9.0 0.0 1.0 
7.0 4.0 4.0 1.0 10.0 9.0 0.0 5.0 3.0 9.0 5.0 2.0 8.0 4.0 5.0 3.0 7.0 3.0 6.0 3.0 0.0 3.0 2.0 3.0 2.0 10.0 0.0 6.0 4.0 1.0 8.0 2.0 1.0 10.0 7.0 10.0 6.0 7.0 -216.0 4.0 6.0 7.0 5.0 4.0 10.0 
8.0 4.0 9.0 10.0 2.0 2.0 8.0 10.0 8.0 3.0 3.0 9.0 5.0 0.0 0.0 6.0 3.0 4.0 1.0 4.0 7.0 3.0 1.0 3.0 2.0 5.0 1.0 4.0 3.0 9.0 8.0 6.0 0.0 2.0 1.0 0.0 8.0 9.0 4.0 -198.0 4.0 8.0 3.0 1.0 7.0 
4.0 5.0 8.0 9.0 3.0 8.0 7.0 4.0 2.0 1.0 8.0 0.0 4.0 5.0 8.0 4.0 4.0 5.0 1.0 1.0 2.0 0.0 7.0 9.0 1.0 3.0 8.0 7.0 3.0 10.0 7.0 8.0 0.0 2.0 9.0 2.0 9.0 7.0 6.0 4.0 -211.0 4.0 6.0 4.0 2.0 
8.0 1.0 0.0 1.0 3.0 0.0 5.0 1.0 10.0 7.0 7.0 3.0 4.0 5.0 2.0 5.0 9.0 1.0 6.0 4.0 8.0 8.0 6.0 7.0 7.0 9.0 9.0 4.0 0.0 1.0 9.0 8.0 2.0 6.0 6.0 8.0 6.0 4.0 7.0 8.0 4.0 -220.0 4.0 1.0 6.0 
2.0 0.0 7.0 3.0 0.0 9.0 3.0 0.0 8.0 7.0 4.0 4.0 3.0 8.0 10.0 10.0 10.0 8.0 10.0 3.0 6.0 0.0 9.0 7.0 0.0 9.0 5.0 1.0 7.0 7.0 5.0 9.0 4.0 4.0 0.0 10.0 3.0 9.0 5.0 3.0 6.0 4.0 -230.0 3.0 5.0 
3.0 0.0 9.0 1.0 9.0 6.0 10.0 2.0 0.0 9.0 0.0 8.0 6.0 6.0 2.0 7.0 9.0 6.0 8.0 9.0 9.0 7.0 7.0 1.0 3.0 4.0 0.0 7.0 5.0 5.0 10.0 4.0 10.0 3.0 5.0 1.0 9.0 0.0 4.0 1.0 4.0 1.0 3.0 -215.0 2.0 
10.0 0.0 7.0 8.0 6.0 2.0 2.0 6.0 0.0 10.0 8.0 10.0 4.0 0.0 6.0 7.0 8.0 5.0 9.0 7.0 1.0 3.0 5.0 5.0 0.0 3.0 7.0 5.0 2.0 10.0 0.0 4.0 6.0 3.0 0.0 7.0 8.0 1.0 10.0 7.0 2.0 6.0 5.0 2.0 -217.0 

